NAME : ct_4_n_3_k10_t_60
COMMENT : (ct_4_n_3_k10_t_60, Min no of trucks: 2, Optimal value: 447.086151882258, Split: No)
TYPE : SDVRP
DIMENSION : 5
EDGE_WEIGHT_TYPE : EUC_2D
CAPACITY : 10
NODE_COORD_SECTION
1 100 100
2 61 163
3 112 45
4 98 151
5 177 158
DEMAND_SECTION
1 0
2 4.9
3 6.1
4 3.7
5 3.3
DEPOT_SECTION
 1
EOF